Version identifier: 20.1.0.0 | 2020-11-10 | 9bedb6d68
CPXPARAM_Threads                                 1
CPXPARAM_TimeLimit                               7200
CPXPARAM_MIP_Tolerances_MIPGap                   0
Generic callback                                 0x60
1 of 1 MIP starts provided solutions.
MIP start 'm1' defined initial solution with objective 2180.0019.
Tried aggregator 1 time.
Reduced MIP has 1 rows, 1001 columns, and 1000 nonzeros.
Reduced MIP has 1000 binaries, 0 generals, 0 SOSs, and 0 indicators.
Presolve time = 0.00 sec. (0.30 ticks)
Probing time = 0.00 sec. (0.11 ticks)
Tried aggregator 1 time.
Reduced MIP has 1 rows, 1001 columns, and 1000 nonzeros.
Reduced MIP has 1000 binaries, 0 generals, 0 SOSs, and 0 indicators.
Presolve time = 0.00 sec. (0.31 ticks)
Probing time = 0.00 sec. (0.11 ticks)
MIP emphasis: balance optimality and feasibility.
MIP search method: dynamic search.
Parallel mode: none, using 1 thread.
Root relaxation solution time = 0.00 sec. (0.21 ticks)

        Nodes                                         Cuts/
   Node  Left     Objective  IInf  Best Integer    Best Bound    ItCnt     Gap

*     0+    0                         2180.0019     4368.0000           100.37%
      0     0     3081.2506     2     2180.0019     4368.0000        0  100.37%
      0     0     2722.1665     4     2180.0019 UserPurge2: 1       13   24.87%
      0     0     2603.3794     5     2180.0019 UserPurge2: 1       22   19.42%
      0     0     2555.9358     5     2180.0019 UserPurge2: 1       37   17.24%
      0     0     2510.1175     7     2180.0019 UserPurge2: 1       54   15.14%
      0     0     2454.6222     7     2180.0019 UserPurge2: 1       62   12.60%
      0     0     2427.1956     9     2180.0019 UserPurge2: 1       76   11.34%
      0     0     2397.2861    10     2180.0019 UserPurge2: 1      121    9.97%
      0     0     2368.6446    10     2180.0019 UserPurge2: 1      150    8.65%
      0     0     2356.2559    11     2180.0019 UserPurge1: 1      152    8.09%
      0     0     2348.3811    11     2180.0019 UserPurge2: 1      167    7.72%
      0     0     2344.5533    13     2180.0019 UserPurge1: 1      169    7.55%
      0     0     2337.5094    14     2180.0019 UserPurge2: 1      207    7.23%
      0     0     2327.4209    15     2180.0019 UserPurge2: 1      263    6.76%
      0     0     2320.8796    16     2180.0019 UserPurge1: 2      300    6.46%
      0     0     2313.8629    15     2180.0019 UserPurge2: 1      336    6.14%
      0     0     2310.7046    16     2180.0019 UserPurge2: 1      362    6.00%
      0     0     2302.9615    16     2180.0019 UserPurge2: 1      405    5.64%
      0     0     2297.4286    15     2180.0019 UserPurge1: 1      415    5.39%
      0     0     2286.9074    14     2180.0019 UserPurge2: 1      451    4.90%
      0     0     2284.4495    15     2180.0019 UserPurge2: 1      459    4.79%
      0     0     2283.5444    18     2180.0019 UserPurge1: 2      477    4.75%
      0     0     2280.9217    14     2180.0019 UserPurge2: 1      502    4.63%
      0     0     2279.2166    15     2180.0019 UserPurge2: 1      513    4.55%
      0     0     2276.3221    14     2180.0019 UserPurge2: 1      531    4.42%
      0     0     2274.8764    16     2180.0019 UserPurge2: 1      555    4.35%
      0     0     2273.4238    16     2180.0019 UserPurge1: 2      561    4.29%
      0     0     2272.1687    18     2180.0019 UserPurge1: 1      567    4.23%
      0     0     2271.2423    20     2180.0019 UserPurge1: 1      586    4.19%
      0     0     2267.0081    15     2180.0019 UserPurge2: 1      629    3.99%
      0     0     2265.5193    15     2180.0019 UserPurge2: 1      649    3.92%
      0     0     2264.7202    15     2180.0019 UserPurge2: 1      673    3.89%
      0     0     2263.6842    16     2180.0019 UserPurge2: 1      696    3.84%
      0     0     2261.9302    16     2180.0019 UserPurge2: 1      716    3.76%
      0     0     2260.4596    15     2180.0019 UserPurge2: 1      750    3.69%
      0     0     2259.4985    15     2180.0019 UserPurge2: 1      780    3.65%
      0     0     2258.5562    17     2180.0019 UserPurge2: 1      795    3.60%
      0     0     2258.5349    18     2180.0019 UserPurge1: 1      802    3.60%
      0     0     2257.3213    17     2180.0019 UserPurge2: 1      835    3.55%
      0     0     2255.7666    17     2180.0019 UserPurge2: 1      868    3.48%
      0     0     2254.6896    18     2180.0019 UserPurge2: 1      888    3.43%
      0     0     2250.0294    17     2180.0019 UserPurge2: 1      938    3.21%
      0     0     2247.9483    16     2180.0019 UserPurge2: 1      960    3.12%
      0     0     2247.0841    15     2180.0019 UserPurge2: 1      992    3.08%
      0     0     2245.8275    17     2180.0019 UserPurge2: 1     1007    3.02%
      0     0     2244.0597    17     2180.0019 UserPurge2: 1     1041    2.94%
      0     0     2242.3555    17     2180.0019 UserPurge2: 1     1060    2.86%
      0     0     2241.6301    17     2180.0019 UserPurge2: 1     1090    2.83%
      0     0     2240.1162    16     2180.0019 UserPurge2: 1     1116    2.76%
      0     0     2239.5125    18     2180.0019 UserPurge2: 1     1140    2.73%
      0     0     2238.9394    17     2180.0019 UserPurge2: 1     1165    2.70%
      0     0     2237.8542    18     2180.0019 UserPurge2: 1     1204    2.65%
      0     0     2236.3415    18     2180.0019 UserPurge2: 1     1233    2.58%
      0     0     2235.4763    20     2180.0019 UserPurge2: 1     1248    2.54%
      0     0     2234.1732    17     2180.0019 UserPurge2: 1     1286    2.48%
      0     0     2232.9497    18     2180.0019 UserPurge2: 1     1309    2.43%
      0     0     2232.2721    19     2180.0019 UserPurge2: 1     1327    2.40%
      0     0     2231.0772    17     2180.0019 UserPurge2: 1     1360    2.34%
      0     0     2230.2284    17     2180.0019 UserPurge2: 1     1377    2.30%
      0     0     2229.3846    18     2180.0019 UserPurge2: 1     1407    2.27%
      0     0     2229.0041    18     2180.0019 UserPurge2: 1     1424    2.25%
      0     0     2228.7618    18     2180.0019 UserPurge2: 1     1442    2.24%
      0     0     2228.1922    19     2180.0019 UserPurge2: 1     1466    2.21%
      0     0     2227.9220    19     2180.0019 UserPurge2: 1     1479    2.20%
      0     0     2227.8018    19     2180.0019 UserPurge2: 1     1493    2.19%
      0     0     2227.6593    20     2180.0019 UserPurge2: 1     1506    2.19%
      0     0     2227.4177    21     2180.0019 UserPurge2: 1     1528    2.18%
      0     0     2226.7364    21     2180.0019 UserPurge2: 1     1551    2.14%
      0     0     2226.0756    21     2180.0019 UserPurge2: 1     1584    2.11%
      0     0     2225.4486    21     2180.0019 UserPurge2: 1     1611    2.08%
      0     0     2225.1004    22     2180.0019 UserPurge2: 1     1626    2.07%
      0     0     2224.8606    23     2180.0019 UserPurge2: 1     1642    2.06%
      0     0     2224.3507    23     2180.0019 UserPurge2: 1     1672    2.03%
      0     0     2223.9288    23     2180.0019 UserPurge2: 1     1702    2.01%
      0     0     2223.0211    21     2180.0019 UserPurge2: 1     1744    1.97%
      0     0     2222.2663    20     2180.0019 UserPurge2: 1     1772    1.94%
      0     0     2221.9438    20     2180.0019 UserPurge2: 1     1784    1.92%
      0     0     2221.3079    19     2180.0019 UserPurge2: 1     1817    1.89%
      0     0     2221.1251    20     2180.0019 UserPurge2: 1     1827    1.89%
      0     0     2220.7988    20     2180.0019 UserPurge2: 1     1850    1.87%
      0     0     2220.6411    21     2180.0019 UserPurge2: 1     1864    1.86%
      0     0     2220.4212    22     2180.0019 UserPurge2: 1     1890    1.85%
      0     0     2220.2190    23     2180.0019 UserPurge2: 1     1909    1.84%
      0     0     2219.8941    23     2180.0019 UserPurge2: 1     1930    1.83%
      0     0     2219.4921    24     2180.0019 UserPurge2: 1     1953    1.81%
      0     0     2219.0208    23     2180.0019 UserPurge2: 1     1977    1.79%
      0     0     2218.0259    22     2180.0019 UserPurge2: 1     2011    1.74%
      0     0     2217.1715    20     2180.0019 UserPurge2: 1     2058    1.71%
      0     0     2216.1285    19     2180.0019 UserPurge2: 1     2083    1.66%
      0     0     2215.8872    19     2180.0019 UserPurge2: 1     2095    1.65%
      0     0     2215.3250    19     2180.0019 UserPurge2: 1     2122    1.62%
      0     0     2215.1598    20     2180.0019 UserPurge2: 1     2137    1.61%
      0     0     2215.0753    21     2180.0019 UserPurge2: 1     2149    1.61%
      0     0     2214.8912    21     2180.0019 UserPurge2: 1     2165    1.60%
      0     0     2214.6199    21     2180.0019 UserPurge2: 1     2176    1.59%
      0     0     2214.4551    22     2180.0019 UserPurge2: 1     2198    1.58%
      0     0     2214.3195    23     2180.0019 UserPurge2: 1     2216    1.57%
      0     0     2213.9995    24     2180.0019 UserPurge2: 1     2239    1.56%
      0     0     2213.7240    23     2180.0019 UserPurge2: 1     2256    1.55%
      0     0     2213.1606    24     2180.0019 UserPurge2: 1     2302    1.52%
      0     0     2212.9009    24     2180.0019 UserPurge2: 1     2319    1.51%
      0     0     2212.6470    25     2180.0019 UserPurge2: 1     2334    1.50%
      0     0     2212.3666    22     2180.0019 UserPurge2: 1     2367    1.48%
      0     0     2212.2398    23     2180.0019 UserPurge2: 1     2384    1.48%
      0     0     2212.0754    23     2180.0019 UserPurge2: 1     2413    1.47%
      0     0     2211.8433    23     2180.0019 UserPurge2: 1     2437    1.46%
      0     0     2211.1997    23     2180.0019 UserPurge2: 1     2473    1.43%
      0     0     2211.0932    23     2180.0019 UserPurge2: 1     2487    1.43%
      0     0     2210.6312    23     2180.0019 UserPurge2: 1     2521    1.41%
      0     0     2210.5824    23     2180.0019 UserPurge2: 1     2532    1.40%
      0     0     2210.4512    23     2180.0019 UserPurge2: 1     2553    1.40%
      0     0     2210.3051    24     2180.0019 UserPurge2: 1     2583    1.39%
      0     0     2210.0763    24     2180.0019 UserPurge2: 1     2625    1.38%
      0     0     2209.9623    24     2180.0019 UserPurge2: 1     2643    1.37%
      0     0     2209.7720    25     2180.0019 UserPurge2: 1     2658    1.37%
      0     0     2209.6822    26     2180.0019 UserPurge2: 1     2679    1.36%
      0     0     2209.4377    26     2180.0019 UserPurge2: 1     2714    1.35%
      0     0     2208.8841    25     2180.0019 UserPurge2: 1     2753    1.32%
      0     0     2208.7510    26     2180.0019 UserPurge2: 1     2766    1.32%
      0     0     2208.3226    25     2180.0019 UserPurge2: 1     2789    1.30%
      0     0     2208.0975    26     2180.0019 UserPurge2: 1     2808    1.29%
      0     0     2207.8440    26     2180.0019 UserPurge2: 1     2829    1.28%
      0     0     2207.6575    27     2180.0019 UserPurge2: 1     2852    1.27%
      0     0     2207.4509    27     2180.0019 UserPurge2: 1     2875    1.26%
      0     0     2207.1196    25     2180.0019 UserPurge2: 1     2913    1.24%
      0     0     2206.9573    25     2180.0019 UserPurge2: 1     2952    1.24%
      0     0     2206.8540    26     2180.0019 UserPurge2: 1     2975    1.23%
      0     0     2206.7482    27     2180.0019 UserPurge2: 1     2995    1.23%
      0     0     2206.5600    27     2180.0019 UserPurge2: 1     3024    1.22%
      0     0     2206.2974    27     2180.0019 UserPurge2: 1     3057    1.21%
      0     0     2206.1836    26     2180.0019 UserPurge2: 1     3084    1.20%
      0     0     2205.9435    25     2180.0019 UserPurge2: 1     3117    1.19%
      0     0     2205.8307    26     2180.0019 UserPurge2: 1     3150    1.18%
      0     0     2205.7683    27     2180.0019 UserPurge2: 1     3168    1.18%
      0     0     2205.7026    28     2180.0019 UserPurge2: 1     3190    1.18%
      0     0     2205.5826    29     2180.0019 UserPurge2: 1     3230    1.17%
      0     0     2205.4107    29     2180.0019 UserPurge2: 1     3268    1.17%
      0     0     2205.1109    27     2180.0019 UserPurge2: 1     3312    1.15%
      0     0     2204.8909    28     2180.0019 UserPurge2: 1     3339    1.14%
      0     0     2204.6996    28     2180.0019 UserPurge2: 1     3367    1.13%
      0     0     2204.4011    28     2180.0019 UserPurge2: 1     3396    1.12%
      0     0     2204.2529    29     2180.0019 UserPurge2: 1     3416    1.11%
      0     0     2203.7510    29     2180.0019 UserPurge2: 1     3461    1.09%
      0     0     2203.5964    29     2180.0019 UserPurge2: 1     3483    1.08%
      0     0     2203.4178    28     2180.0019 UserPurge2: 1     3514    1.07%
      0     0     2203.0373    29     2180.0019 UserPurge2: 1     3550    1.06%
      0     0     2202.6992    29     2180.0019 UserPurge2: 1     3588    1.04%
      0     0     2202.0398    26     2180.0019 UserPurge2: 1     3625    1.01%
      0     0     2201.9132    27     2180.0019 UserPurge2: 1     3638    1.01%
      0     0     2201.8154    27     2180.0019 UserPurge2: 1     3655    1.00%
      0     0     2201.7268    28     2180.0019 UserPurge2: 1     3669    1.00%
      0     0     2201.5276    28     2180.0019 UserPurge2: 1     3710    0.99%
      0     0     2201.3391    28     2180.0019 UserPurge2: 1     3743    0.98%
      0     0     2201.1905    27     2180.0019 UserPurge2: 1     3776    0.97%
      0     0     2201.1072    28     2180.0019 UserPurge2: 1     3800    0.97%
      0     0     2200.8444    28     2180.0019 UserPurge2: 1     3834    0.96%
      0     0     2200.6374    28     2180.0019 UserPurge2: 1     3853    0.95%
      0     0     2200.5523    28     2180.0019 UserPurge2: 1     3877    0.94%
      0     0     2200.4133    29     2180.0019 UserPurge2: 1     3898    0.94%
      0     0     2200.3020    30     2180.0019 UserPurge2: 1     3930    0.93%
      0     0     2200.1306    30     2180.0019 UserPurge2: 1     3958    0.92%
      0     0     2199.8801    30     2180.0019 UserPurge2: 1     3983    0.91%
      0     0     2199.7962    29     2180.0019 UserPurge2: 1     4002    0.91%
      0     0     2199.7042    29     2180.0019 UserPurge2: 1     4025    0.90%
      0     0     2199.6349    30     2180.0019 UserPurge2: 1     4047    0.90%
      0     0     2199.5629    31     2180.0019 UserPurge2: 1     4077    0.90%
      0     0     2199.4643    31     2180.0019 UserPurge2: 1     4124    0.89%
      0     0     2199.4276    32     2180.0019 UserPurge2: 1     4145    0.89%
      0     0     2199.3777    32     2180.0019 UserPurge2: 1     4178    0.89%
      0     0     2199.3134    31     2180.0019 UserPurge2: 1     4200    0.89%
      0     0     2199.0726    30     2180.0019 UserPurge2: 1     4237    0.87%
      0     0     2199.0071    29     2180.0019 UserPurge2: 1     4252    0.87%
      0     0     2198.8081    29     2180.0019 UserPurge2: 1     4287    0.86%
      0     0     2198.7199    29     2180.0019 UserPurge2: 1     4308    0.86%
      0     0     2198.6008    30     2180.0019 UserPurge2: 1     4330    0.85%
      0     0     2198.5443    30     2180.0019 UserPurge2: 1     4353    0.85%
      0     0     2198.4783    31     2180.0019 UserPurge2: 1     4381    0.85%
      0     0     2198.2642    31     2180.0019 UserPurge2: 1     4419    0.84%
      0     0     2197.8839    27     2180.0019 UserPurge2: 1     4458    0.82%
      0     0     2197.7213    27     2180.0019 UserPurge2: 1     4488    0.81%
      0     0     2197.6703    28     2180.0019 UserPurge2: 1     4507    0.81%
      0     0     2197.5794    28     2180.0019 UserPurge2: 1     4526    0.81%
      0     0     2197.3690    28     2180.0019 UserPurge2: 1     4550    0.80%
      0     0     2197.1714    28     2180.0019 UserPurge2: 1     4579    0.79%
      0     0     2197.1061    28     2180.0019 UserPurge2: 1     4594    0.78%
      0     0     2197.0016    29     2180.0019 UserPurge2: 1     4618    0.78%
      0     0     2196.9353    30     2180.0019 UserPurge2: 1     4638    0.78%
      0     0     2196.8726    30     2180.0019 UserPurge2: 1     4664    0.77%
      0     0     2196.7815    31     2180.0019 UserPurge2: 1     4687    0.77%
      0     0     2196.6470    30     2180.0019 UserPurge2: 1     4715    0.76%
      0     0     2196.5897    31     2180.0019 UserPurge2: 1     4740    0.76%
      0     0     2196.4974    31     2180.0019 UserPurge2: 1     4771    0.76%
      0     0     2196.1769    29     2180.0019 UserPurge2: 1     4827    0.74%
      0     0     2195.9423    28     2180.0019 UserPurge2: 1     4854    0.73%
      0     0     2195.8529    29     2180.0019 UserPurge2: 1     4874    0.73%
      0     0     2195.7023    29     2180.0019 UserPurge2: 1     4901    0.72%
      0     0     2195.5624    29     2180.0019 UserPurge2: 1     4926    0.71%
      0     0     2195.3606    29     2180.0019 UserPurge2: 1     4949    0.70%
      0     0     2195.1732    28     2180.0019 UserPurge2: 1     4974    0.70%
      0     0     2195.0341    28     2180.0019 UserPurge2: 1     5000    0.69%
      0     0     2195.0209    29     2180.0019 UserPurge2: 1     5007    0.69%
      0     0     2194.9131    27     2180.0019 UserPurge2: 1     5028    0.68%
      0     0     2194.6600    28     2180.0019 UserPurge2: 1     5068    0.67%
      0     0     2194.3569    26     2180.0019 UserPurge2: 1     5100    0.66%
      0     0     2194.2680    26     2180.0019 UserPurge2: 1     5121    0.65%
      0     0     2194.1728    25     2180.0019 UserPurge2: 1     5139    0.65%
      0     0     2194.1326    24     2180.0019 UserPurge2: 1     5155    0.65%
      0     0     2194.0953    25     2180.0019 UserPurge2: 1     5165    0.65%
      0     0     2194.0354    26     2180.0019 UserPurge2: 1     5184    0.64%
      0     0     2193.9576    27     2180.0019 UserPurge2: 1     5202    0.64%
      0     0     2193.9320    28     2180.0019 UserPurge2: 1     5213    0.64%
      0     0     2193.8374    27     2180.0019 UserPurge2: 1     5243    0.63%
      0     0     2193.8005    28     2180.0019 UserPurge2: 1     5264    0.63%
      0     0     2193.7885    28     2180.0019 UserPurge2: 1     5281    0.63%
      0     0     2193.7787    29     2180.0019 UserPurge2: 1     5295    0.63%
      0     0     2193.7418    30     2180.0019 UserPurge2: 1     5318    0.63%
      0     0     2193.7236    31     2180.0019 UserPurge2: 1     5331    0.63%
      0     0     2193.6687    31     2180.0019 UserPurge2: 1     5360    0.63%
      0     0     2193.6130    31     2180.0019 UserPurge2: 1     5381    0.62%
      0     0     2193.5404    29     2180.0019 UserPurge2: 1     5415    0.62%
      0     0     2193.4593    29     2180.0019 UserPurge2: 1     5440    0.62%
      0     0     2193.3888    30     2180.0019 UserPurge2: 1     5467    0.61%
      0     0     2193.3217    30     2180.0019 UserPurge2: 1     5495    0.61%
      0     0     2193.2555    30     2180.0019 UserPurge2: 1     5522    0.61%
      0     0     2193.2139    31     2180.0019 UserPurge2: 1     5541    0.61%
      0     0     2193.1609    31     2180.0019 UserPurge2: 1     5572    0.60%
      0     0     2193.0974    31     2180.0019 UserPurge2: 1     5601    0.60%
      0     0     2193.0716    32     2180.0019 UserPurge2: 1     5623    0.60%
      0     0     2193.0432    31     2180.0019 UserPurge2: 1     5643    0.60%
      0     0     2193.0142    32     2180.0019 UserPurge2: 1     5682    0.60%
      0     0     2192.9753    32     2180.0019 UserPurge2: 1     5717    0.60%
      0     0     2192.9543    32     2180.0019 UserPurge2: 1     5741    0.59%
      0     0     2192.9316    33     2180.0019 UserPurge2: 1     5767    0.59%
      0     0     2192.8976    34     2180.0019 UserPurge2: 1     5800    0.59%
      0     0     2192.8432    33     2180.0019 UserPurge2: 1     5829    0.59%
      0     0     2192.7733    32     2180.0019 UserPurge2: 1     5856    0.59%
      0     0     2192.7431    32     2180.0019 UserPurge2: 1     5880    0.58%
      0     0     2192.7109    33     2180.0019 UserPurge2: 1     5905    0.58%
      0     0     2192.6867    32     2180.0019 UserPurge2: 1     5921    0.58%
      0     0     2192.6676    33     2180.0019 UserPurge2: 1     5937    0.58%
      0     0     2192.6502    34     2180.0019 UserPurge2: 1     5952    0.58%
      0     0     2192.6323    35     2180.0019 UserPurge2: 1     5978    0.58%
      0     0     2192.6097    35     2180.0019 UserPurge2: 1     6008    0.58%
      0     0     2192.5598    35     2180.0019 UserPurge2: 1     6039    0.58%
      0     0     2192.5377    36     2180.0019 UserPurge2: 1     6068    0.58%
      0     0     2192.5168    36     2180.0019 UserPurge2: 1     6088    0.57%
      0     0     2192.4838    36     2180.0019 UserPurge2: 1     6109    0.57%
      0     0     2192.3846    36     2180.0019 UserPurge2: 1     6152    0.57%
      0     0     2192.3219    35     2180.0019 UserPurge2: 1     6182    0.57%
      0     0     2192.1995    33     2180.0019 UserPurge2: 1     6213    0.56%
      0     0     2192.1712    34     2180.0019 UserPurge2: 1     6233    0.56%
      0     0     2192.1370    35     2180.0019 UserPurge2: 1     6258    0.56%
      0     0     2192.0740    34     2180.0019 UserPurge2: 1     6306    0.55%
      0     0     2192.0400    35     2180.0019 UserPurge2: 1     6321    0.55%
      0     0     2191.9822    35     2180.0019 UserPurge2: 1     6346    0.55%
      0     0     2191.9685    35     2180.0019 UserPurge2: 1     6358    0.55%
      0     0     2191.9139    36     2180.0019 UserPurge2: 1     6387    0.55%
      0     0     2191.8391    36     2180.0019 UserPurge2: 1     6438    0.54%
      0     0     2191.7778    35     2180.0019 UserPurge2: 1     6464    0.54%
      0     0     2191.7142    35     2180.0019 UserPurge2: 1     6493    0.54%
      0     0     2191.6943    34     2180.0019 UserPurge2: 1     6511    0.54%
      0     0     2191.6683    35     2180.0019 UserPurge2: 1     6536    0.54%
      0     0     2191.6501    36     2180.0019 UserPurge2: 1     6563    0.53%
      0     0     2191.6321    37     2180.0019 UserPurge2: 1     6586    0.53%
      0     0     2191.5830    38     2180.0019 UserPurge2: 1     6635    0.53%
      0     0     2191.4987    35     2180.0019 UserPurge2: 1     6692    0.53%
      0     0     2191.4652    35     2180.0019 UserPurge2: 1     6712    0.53%
      0     0     2191.4228    36     2180.0019 UserPurge2: 1     6747    0.52%
*     0+    0                         2180.2262     2191.4228             0.51%
      0     0     2191.4139    37     2180.2262 UserPurge2: 1     6767    0.51%
      0     0     2191.3853    37     2180.2262 UserPurge2: 1     6790    0.51%
      0     0     2191.3366    37     2180.2262 UserPurge2: 1     6835    0.51%
      0     0     2191.3071    37     2180.2262 UserPurge2: 1     6865    0.51%
      0     0     2191.2747    36     2180.2262 UserPurge2: 1     6891    0.51%
      0     0     2191.2416    36     2180.2262 UserPurge2: 1     6912    0.51%
      0     0     2191.2272    37     2180.2262 UserPurge2: 1     6938    0.50%
      0     0     2191.1973    38     2180.2262 UserPurge2: 1     6959    0.50%
      0     0     2191.1596    38     2180.2262 UserPurge2: 1     6989    0.50%
      0     0     2191.0821    37     2180.2262 UserPurge2: 1     7024    0.50%
      0     0     2191.0151    36     2180.2262 UserPurge2: 1     7056    0.49%
      0     0     2190.9507    36     2180.2262 UserPurge2: 1     7077    0.49%
      0     0     2190.9009    36     2180.2262 UserPurge2: 1     7103    0.49%
      0     0     2190.8779    36     2180.2262 UserPurge2: 1     7122    0.49%
      0     0     2190.8448    37     2180.2262 UserPurge2: 1     7158    0.49%
      0     0     2190.8061    37     2180.2262 UserPurge2: 1     7189    0.49%
      0     0     2190.7660    37     2180.2262 UserPurge2: 1     7232    0.48%
      0     0     2190.7193    37     2180.2262 UserPurge2: 1     7274    0.48%
      0     0     2190.6612    38     2180.2262 UserPurge2: 1     7322    0.48%
      0     0     2190.5840    39     2180.2262 UserPurge2: 1     7363    0.48%
      0     0     2190.5537    38     2180.2262 UserPurge2: 1     7399    0.47%
      0     0     2190.5197    39     2180.2262 UserPurge2: 1     7435    0.47%
      0     0     2190.4816    39     2180.2262 UserPurge2: 1     7474    0.47%
      0     0     2190.4680    40     2180.2262 UserPurge2: 1     7496    0.47%
      0     0     2190.4454    40     2180.2262 UserPurge2: 1     7536    0.47%
*     0+    0                         2181.1675     2190.4454             0.43%
      0     0     2190.4144    41     2181.1675 UserPurge2: 1     7559    0.42%
      0     0     2190.3973    41     2181.1675 UserPurge2: 1     7583    0.42%
      0     0     2190.3569    40     2181.1675 UserPurge2: 1     7613    0.42%
      0     0     2190.3275    41     2181.1675 UserPurge2: 1     7642    0.42%
      0     0     2190.3176    41     2181.1675 UserPurge2: 1     7663    0.42%
      0     0     2190.2643    41     2181.1675 UserPurge2: 1     7708    0.42%
      0     0     2190.2058    41     2181.1675 UserPurge2: 1     7748    0.41%
      0     0     2190.1807    41     2181.1675 UserPurge2: 1     7770    0.41%
      0     0     2190.1477    41     2181.1675 UserPurge2: 1     7814    0.41%
      0     0     2190.1312    42     2181.1675 UserPurge2: 1     7836    0.41%
      0     0     2190.1068    41     2181.1675 UserPurge2: 1     7870    0.41%
      0     0     2190.0675    42     2181.1675 UserPurge2: 1     7896    0.41%
      0     0     2189.9881    42     2181.1675 UserPurge2: 1     7933    0.40%
      0     0     2189.9247    41     2181.1675 UserPurge2: 1     7980    0.40%
      0     0     2189.8188    40     2181.1675 UserPurge2: 1     8025    0.40%
      0     0     2189.7623    39     2181.1675 UserPurge2: 1     8056    0.39%
      0     0     2189.7051    40     2181.1675 UserPurge2: 1     8099    0.39%
      0     0     2189.6628    40     2181.1675 UserPurge2: 1     8121    0.39%
      0     0     2189.6115    39     2181.1675 UserPurge2: 1     8160    0.39%
      0     0     2189.5632    39     2181.1675 UserPurge2: 1     8184    0.38%
      0     0     2189.5241    38     2181.1675 UserPurge2: 1     8217    0.38%
      0     0     2189.5013    39     2181.1675 UserPurge2: 1     8242    0.38%
      0     0     2189.4586    39     2181.1675 UserPurge2: 1     8280    0.38%
      0     0     2189.4373    40     2181.1675 UserPurge2: 1     8298    0.38%
      0     0     2189.3915    40     2181.1675 UserPurge2: 1     8333    0.38%
      0     0     2189.3553    40     2181.1675 UserPurge2: 1     8367    0.38%
      0     0     2189.3393    39     2181.1675 UserPurge2: 1     8395    0.37%
      0     0     2189.3139    40     2181.1675 UserPurge2: 1     8425    0.37%
      0     0     2189.2648    40     2181.1675 UserPurge2: 1     8466    0.37%
      0     0     2189.1592    40     2181.1675 UserPurge2: 1     8511    0.37%
      0     0     2189.1150    39     2181.1675 UserPurge2: 1     8546    0.36%
      0     0     2189.1013    40     2181.1675 UserPurge2: 1     8564    0.36%
      0     0     2189.0788    40     2181.1675 UserPurge2: 1     8587    0.36%
      0     0     2189.0220    39     2181.1675 UserPurge2: 1     8627    0.36%
      0     0     2188.9764    38     2181.1675 UserPurge2: 1     8668    0.36%
      0     0     2188.9416    38     2181.1675 UserPurge2: 1     8690    0.36%
      0     0     2188.9317    39     2181.1675 UserPurge2: 1     8718    0.36%
      0     0     2188.9050    39     2181.1675 UserPurge2: 1     8741    0.35%
      0     0     2188.8895    39     2181.1675 UserPurge2: 1     8766    0.35%
      0     0     2188.8823    40     2181.1675 UserPurge2: 1     8780    0.35%
      0     0     2188.8734    41     2181.1675 UserPurge2: 1     8802    0.35%
      0     0     2188.8558    41     2181.1675 UserPurge2: 1     8833    0.35%
      0     0     2188.8128    39     2181.1675 UserPurge2: 1     8880    0.35%
      0     0     2188.7868    40     2181.1675 UserPurge2: 1     8905    0.35%
      0     0     2188.7643    41     2181.1675 UserPurge2: 1     8929    0.35%
      0     0     2188.7124    40     2181.1675 UserPurge2: 1     8984    0.35%
      0     0     2188.6671    39     2181.1675 UserPurge2: 1     9016    0.34%
      0     0     2188.6283    39     2181.1675 UserPurge2: 1     9041    0.34%
      0     0     2188.6135    39     2181.1675 UserPurge2: 1     9073    0.34%
      0     0     2188.6099    40     2181.1675 UserPurge2: 1     9085    0.34%
      0     0     2188.6053    41     2181.1675 UserPurge2: 1     9093    0.34%
      0     0     2188.5718    40     2181.1675 UserPurge2: 1     9137    0.34%
      0     0     2188.5619    41     2181.1675 UserPurge2: 1     9151    0.34%
      0     0     2188.5440    41     2181.1675 UserPurge2: 1     9192    0.34%
      0     0     2188.4988    41     2181.1675 UserPurge2: 1     9221    0.34%
      0     0     2188.4845    40     2181.1675 UserPurge2: 1     9241    0.34%
      0     0     2188.4758    41     2181.1675 UserPurge2: 1     9259    0.34%
      0     0     2188.4374    41     2181.1675 UserPurge2: 1     9305    0.33%
      0     0     2188.3868    40     2181.1675 UserPurge2: 1     9333    0.33%
      0     0     2188.3489    39     2181.1675 UserPurge2: 1     9353    0.33%
      0     0     2188.3344    38     2181.1675 UserPurge2: 1     9372    0.33%
      0     0     2188.3175    39     2181.1675 UserPurge2: 1     9397    0.33%
      0     0     2188.3039    39     2181.1675 UserPurge2: 1     9418    0.33%
      0     0     2188.2800    40     2181.1675 UserPurge2: 1     9446    0.33%
      0     0     2188.2773    41     2181.1675 UserPurge2: 1     9455    0.33%
      0     0     2188.2686    41     2181.1675 UserPurge2: 1     9483    0.33%
*     0+    0                         2181.6415     2188.2686             0.30%
      0     0     2188.2583    40     2181.6415 UserPurge2: 1     9507    0.30%
      0     0     2188.2125    38     2181.6415 UserPurge2: 1     9536    0.30%
      0     0     2188.1905    39     2181.6415 UserPurge2: 1     9562    0.30%
      0     0     2188.1785    40     2181.6415 UserPurge2: 1     9581    0.30%
      0     0     2188.1614    40     2181.6415 UserPurge2: 1     9601    0.30%
      0     0     2188.1424    41     2181.6415 UserPurge2: 1     9630    0.30%
      0     0     2188.1328    41     2181.6415 UserPurge2: 1     9655    0.30%
      0     0     2188.1204    42     2181.6415 UserPurge2: 1     9670    0.30%
      0     0     2188.0712    41     2181.6415 UserPurge2: 1     9721    0.29%
      0     0     2188.0587    40     2181.6415 UserPurge2: 1     9747    0.29%
      0     0     2188.0362    40     2181.6415 UserPurge2: 1     9773    0.29%
      0     0     2188.0022    40     2181.6415 UserPurge2: 1     9800    0.29%
      0     0     2187.9798    40     2181.6415 UserPurge2: 1     9826    0.29%
      0     0     2187.9570    41     2181.6415 UserPurge2: 1     9855    0.29%
      0     0     2187.8642    37     2181.6415 UserPurge2: 1     9903    0.29%
      0     0     2187.8181    37     2181.6415 UserPurge2: 1     9931    0.28%
      0     0     2187.7910    37     2181.6415 UserPurge2: 1     9951    0.28%
      0     0     2187.7326    37     2181.6415 UserPurge2: 1     9986    0.28%
      0     0     2187.7123    36     2181.6415 UserPurge2: 1    10005    0.28%
      0     0     2187.6937    36     2181.6415 UserPurge2: 1    10032    0.28%
      0     0     2187.6668    35     2181.6415 UserPurge2: 1    10060    0.28%
      0     0     2187.6516    36     2181.6415 UserPurge2: 1    10077    0.28%
      0     0     2187.6423    37     2181.6415 UserPurge2: 1    10098    0.28%
      0     0     2187.6303    37     2181.6415 UserPurge2: 1    10119    0.27%
      0     0     2187.6204    38     2181.6415 UserPurge2: 1    10140    0.27%
      0     0     2187.6171    38     2181.6415 UserPurge2: 1    10159    0.27%
      0     0     2187.6112    39     2181.6415 UserPurge2: 1    10176    0.27%
      0     0     2187.6086    40     2181.6415 UserPurge2: 1    10199    0.27%
      0     0     2187.6047    41     2181.6415 UserPurge2: 1    10223    0.27%
      0     0     2187.5971    41     2181.6415 UserPurge2: 1    10251    0.27%
      0     0     2187.5814    39     2181.6415 UserPurge2: 1    10297    0.27%
      0     0     2187.5424    39     2181.6415 UserPurge2: 1    10326    0.27%
      0     0     2187.5111    37     2181.6415 UserPurge2: 1    10363    0.27%
      0     0     2187.4999    38     2181.6415 UserPurge2: 1    10380    0.27%
      0     0     2187.4891    37     2181.6415 UserPurge2: 1    10400    0.27%
      0     2     2187.4891    37     2181.6415     2187.4885    10400    0.27%
Elapsed time = 31.85 sec. (4794.24 ticks, tree = 0.01 MB, solutions = 4)
*     1     1      integral     0     2183.2017     2187.4885    32034    0.20%
      1     1     2183.2017     0     2183.2017     2187.4885    32034    0.20%
*     2     0      integral     0     2184.0000     2187.4885    34995    0.16%
      2     0     2184.0000     0     2184.0000     2184.0000    34995    0.00%

User cuts applied:  604

Root node processing (before b&c):
  Real time             =   31.85 sec. (4795.85 ticks)
Sequential b&c:
  Real time             =   29.70 sec. (10843.71 ticks)
                          ------------
Total (root+branch&cut) =   61.55 sec. (15639.56 ticks)
@Parameters: 
is_S_cut                                true
is_add_all_yinF                         true
is_start_value                          true
is_usercut                              true
is_visualization                        false
uc_only_rootnode                        false

data                                    Qi
fn                                      data/Qi/instance_800_1000.csv
mode                                    NewSubmodular
solver                                  cplex

p                                       10
r                                       10

EPS                                     1.0e-06
EPS_vio                                 1.0e-04
beta                                    0.10
gap                                     0.00
nodelimit                               Inf
timelimit                               7200.00


@PrintInfos
ItCnt: 34995
Current gap: 0.00 %
Termination Status: OPTIMAL
Primal Status: FEASIBLE_POINT
Solve Time: 61.55 sec
Objective Value: 2184.000000
Number of Nodes:      3

CutInfo: [phase] num / time (sec) 
ZLP             [phase1]     0 / 0.00 [rLC]     0 / 0.00 [rUC]     0 / 0.00 [sLC]     0 / 0.00 [sUC]     0 / 0.00 
OldSubmodular   [phase1]     0 / 0.00 [rLC]     0 / 0.00 [rUC]     0 / 0.00 [sLC]     0 / 0.00 [sUC]     0 / 0.00 
NewSubmodular   [phase1]     0 / 0.00 [rLC]   117 / 12.15 [rUC]   395 / 13.96 [sLC]     0 / 3.17 [sUC]   565 / 19.35 
PMP             [phase1]     0 / 0.00 [rLC]     5 / 8.10 [rUC]     0 / 0.00 [sLC]     2 / 3.15 [sUC]     0 / 0.00 
Separation Round: [phase1] 0  [rLC] 121  [rUC] 395  [sLC] 2  [sUC] 565
Root Best Bound 2184.000000
Root Best Integer: 2184.000000
Best Bound: 2184.000000
Best Integer: 2184.000000

